NAME : morphed22-2-29
COMMENT : Generated using the function morphInstances from the R-package netgen (Bossek,2015) - Number of clusters: 2 Alpha: 0.5
TYPE : TSP
DIMENSION : 22
EDGE_WEIGHT_TYPE : EUC_2D
NODE_COORD_SECTION
1 14.42563756 90.1671066945
2 24.5643720763 87.5231713338
3 17.9070727281 62.972801223
4 42.3853879763 25.5968961006
5 56.634365116 35.7536614184
6 14.5626135128 81.5544621371
7 60.6180038732 63.5514071564
8 81.4334390267 11.1810433798
9 16.7789554679 45.2004257695
10 35.7377928591 10.4877319046
11 81.242357987 4.249646292
12 36.6908482412 71.1604743857
13 26.7636412536 53.5139780951
14 61.5352374055 9.3969053932
15 21.3383847697 81.1797024985
16 77.1428549281 21.5728383072
17 61.2733725992 23.6060883355
18 43.8513910806 5.9643761766
19 77.1656188552 34.183902646
20 47.5950307639 0.3957230209
21 46.5411644936 83.6837190344
22 46.4681410133 67.2732381883
EOF
